(set-info :Origin "This instance was generated by: BanditFuzz-- an RL fuzzer for SMT solvers" )
(set-info :Author "Joe Scott, Fed Mora, Vijay Ganesh" )
(set-info :Contact "Joe Scott, joseph.scott@uwaterloo.ca")
(set-logic QF_BV)
(declare-const bool_0 Bool)
(declare-const bool_1 Bool)
(declare-const bool_2 Bool)
(declare-const bool_3 Bool)
(declare-const bool_4 Bool)
(declare-const bv_0 (_ BitVec 32))
(declare-const bv_1 (_ BitVec 32))
(declare-const bv_2 (_ BitVec 32))
(declare-const bv_3 (_ BitVec 32))
(declare-const bv_4 (_ BitVec 32))
(assert (not (=> (xor bool_2 bool_0) (or false false))))
(assert (xor (bvugt (bvashr bv_2 #xfeb59a16 ) (bvadd #x1d27e1a5  #xb2e3a22b )) (bvsle (bvxor #xf4f4e91a  bv_4) (bvsrem bv_3 #x84a2367a ))))
(assert (not (bvule (bvsrem #x93ed1597  bv_3) (bvurem #xcadd9fda  #x839eb2ed ))))
(assert (bvsgt (bvlshr (bvand #xb6c0f4d0  #xe5ba29de ) (bvxnor #xe8e95785  bv_3)) (bvshl (bvnor bv_3 bv_3) (bvand #x04ced4a3  bv_3))))
(assert (bvsgt (bvxnor (bvurem bv_2 #x00536949 ) (bvor #x6c353e37  #x2aca999a )) (bvmul (bvsdiv #xb99949bd  #x5f80788c ) (bvlshr #x4f51b9b8  #xe601bc10 ))))
(check-sat)
(exit)
